NAME : tsp40_14.213.tour
COMMENT : Length = 213
COMMENT : Found by LKH [Keld Helsgaun]
TYPE : TOUR
DIMENSION : 40
TOUR_SECTION
1
10
15
38
19
26
28
16
14
18
2
33
3
31
21
39
7
24
5
35
30
29
12
36
27
20
32
34
37
9
22
8
23
11
13
4
25
17
6
40
-1
EOF
